QPLIB_3387
LCQ
minimize
170 # number of variables
83 # number of constraints
0.0 # default value for linear coefficients in objective
36 # number of non-default linear coefficients in objective
1 1.0
2 1.0
3 1.0
4 1.0
5 1.0
6 1.0
7 1.0
8 1.0
9 1.0
10 1.0
11 1.0
12 1.0
13 1.0
14 1.0
15 1.0
16 1.0
17 1.0
18 1.0
19 1.0
20 1.0
21 1.0
22 1.0
23 1.0
24 1.0
25 1.0
26 1.0
27 1.0
28 1.0
29 1.0
30 1.0
31 1.0
32 1.0
33 1.0
34 1.0
35 1.0
36 1.0
0.0 # objective constant
240 # number of quadratic terms in all constraints
19 1 1 2.0
19 1 1 -2.0
19 1 1 -2.0
19 1 1 -2.0
19 1 1 -2.0
20 1 -1069187071 2.0
20 1 -1069187071 -2.0
20 1 -1069187071 -2.0
20 1 -1069187071 -2.0
20 1 -1069187071 -2.0
21 1 1 2.0
21 1 1 -2.0
21 1 1 -2.0
21 1 1 -2.0
21 1 1 -2.0
22 1 -1067466751 2.0
22 1 -1067466751 -2.0
22 1 -1067466751 -2.0
22 1 -1067466751 -2.0
22 1 -1067466751 -2.0
23 1 1 2.0
23 1 1 -2.0
23 1 1 -2.0
23 1 1 -2.0
23 1 1 -2.0
24 1 -1068023807 2.0
24 1 -1068023807 -2.0
24 1 -1068023807 -2.0
24 1 -1068023807 -2.0
24 1 -1068023807 -2.0
25 1 1 2.0
25 1 1 -2.0
25 1 1 -2.0
25 1 1 -2.0
25 1 1 -2.0
26 1 -1067909119 2.0
26 1 -1067909119 -2.0
26 1 -1067909119 -2.0
26 1 -1067909119 -2.0
26 1 -1067909119 -2.0
27 1 1 2.0
27 1 1 -2.0
27 1 1 -2.0
27 1 1 -2.0
27 1 1 -2.0
28 -1069187071 -1070333951 2.0
28 -1069187071 -1070333951 -2.0
28 -1069187071 -1070333951 -2.0
28 -1069187071 -1070333951 -2.0
28 -1069187071 -1070333951 -2.0
29 1 1 2.0
29 1 1 -2.0
29 1 1 -2.0
29 1 1 -2.0
29 1 1 -2.0
30 1 -1067466751 2.0
30 1 -1067466751 -2.0
30 1 -1067466751 -2.0
30 1 -1067466751 -2.0
30 1 -1067466751 -2.0
31 1 1 2.0
31 1 1 -2.0
31 1 1 -2.0
31 1 1 -2.0
31 1 1 -2.0
32 1 -1068023807 2.0
32 1 -1068023807 -2.0
32 1 -1068023807 -2.0
32 1 -1068023807 -2.0
32 1 -1068023807 -2.0
33 1 1 2.0
33 1 1 -2.0
33 1 1 -2.0
33 1 1 -2.0
33 1 1 -2.0
34 1 -1067909119 2.0
34 1 -1067909119 -2.0
34 1 -1067909119 -2.0
34 1 -1067909119 -2.0
34 1 -1067909119 -2.0
35 1 1 2.0
35 1 1 -2.0
35 1 1 -2.0
35 1 1 -2.0
35 1 1 -2.0
36 1 -1070333951 2.0
36 1 -1070333951 -2.0
36 1 -1070333951 -2.0
36 1 -1070333951 -2.0
36 1 -1070333951 -2.0
37 1 1 2.0
37 1 1 -2.0
37 1 1 -2.0
37 1 1 -2.0
37 1 1 -2.0
38 1 -1068531711 2.0
38 1 -1068531711 -2.0
38 1 -1068531711 -2.0
38 1 -1068531711 -2.0
38 1 -1068531711 -2.0
39 1 1 -2.0
39 1 1 -2.0
39 1 1 -2.0
39 1 1 -2.0
40 1 -1068122111 -2.0
40 1 -1068122111 -2.0
40 1 -1068122111 -2.0
40 1 -1068122111 -2.0
41 1 1 -2.0
41 1 1 -2.0
41 1 1 -2.0
41 1 1 -2.0
42 1 -1068957695 -2.0
42 1 -1068957695 -2.0
42 1 -1068957695 -2.0
42 1 -1068957695 -2.0
43 1 1 -2.0
43 1 1 -2.0
43 1 1 -2.0
43 1 1 -2.0
44 1 -1068072959 -2.0
44 1 -1068072959 -2.0
44 1 -1068072959 -2.0
44 1 -1068072959 -2.0
45 1 1 -2.0
45 1 1 -2.0
45 1 1 -2.0
45 1 1 -2.0
46 -1068531711 -1069285375 -2.0
46 -1068531711 -1069285375 -2.0
46 -1068531711 -1069285375 -2.0
46 -1068531711 -1069285375 -2.0
47 1 1 -2.0
47 1 1 -2.0
47 1 1 -2.0
47 1 1 -2.0
48 1 -1068122111 -2.0
48 1 -1068122111 -2.0
48 1 -1068122111 -2.0
48 1 -1068122111 -2.0
49 1 1 -2.0
49 1 1 -2.0
49 1 1 -2.0
49 1 1 -2.0
50 1 -1068957695 -2.0
50 1 -1068957695 -2.0
50 1 -1068957695 -2.0
50 1 -1068957695 -2.0
51 1 1 -2.0
51 1 1 -2.0
51 1 1 -2.0
51 1 1 -2.0
52 1 -1068072959 -2.0
52 1 -1068072959 -2.0
52 1 -1068072959 -2.0
52 1 -1068072959 -2.0
53 1 1 -2.0
53 1 1 -2.0
53 1 1 -2.0
53 1 1 -2.0
54 1 -1069285375 -2.0
54 1 -1069285375 -2.0
54 1 -1069285375 -2.0
54 1 -1069285375 -2.0
55 1 1 -2.0
55 1 1 -2.0
55 1 1 -2.0
55 1 1 -2.0
56 1 1 -2.0
56 1 1 -2.0
56 1 1 -2.0
56 1 1 -2.0
57 1 1 -2.0
57 1 1 -2.0
57 1 1 -2.0
57 1 1 -2.0
58 1 1 -2.0
58 1 1 -2.0
58 1 1 -2.0
58 1 1 -2.0
59 1 1 -2.0
59 1 1 -2.0
59 1 1 -2.0
59 1 1 -2.0
60 1 1 -2.0
60 1 1 -2.0
60 1 1 -2.0
60 1 1 -2.0
61 1 1 -2.0
61 1 1 -2.0
61 1 1 -2.0
61 1 1 -2.0
62 1 1 -2.0
62 1 1 -2.0
62 1 1 -2.0
62 1 1 -2.0
63 1 1 -2.0
63 1 1 -2.0
63 1 1 -2.0
63 1 1 -2.0
64 1 1 2.0
64 1 1 -2.0
65 1 1 2.0
65 1 1 -2.0
66 1 1 2.0
66 1 1 -2.0
67 1 1 2.0
67 1 1 -2.0
68 1 1 2.0
68 1 1 -2.0
69 1 1 2.0
69 1 1 -2.0
70 1 1 2.0
70 1 1 -2.0
71 1 1 2.0
71 1 1 -2.0
72 1 1 2.0
72 1 1 -2.0
73 1 1 2.0
73 1 1 -2.0
74 1 1 2.0
74 1 1 -2.0
75 1 1 2.0
75 1 1 -2.0
76 1 1 2.0
76 1 1 -2.0
77 1 1 2.0
77 1 1 -2.0
78 1 1 2.0
78 1 1 -2.0
79 1 1 2.0
79 1 1 -2.0
80 1 1 2.0
80 1 1 -2.0
81 1 1 2.0
81 1 1 -2.0
82 1 1 2.0
82 1 1 -2.0
83 1 1 2.0
83 1 1 -2.0
602 # number of linear terms in all constraints
1 1 -1.0
1 10 -1.0
1 19 -1.0
1 28 -1.0
1 77 1.0
1 78 -1.0
1 79 -1.0
1 80 -1.0
1 81 -1.0
1 82 -1.0
1 83 -1.0
1 84 -1.0
1 85 -1.0
1 86 -1.0
2 2 -1.0
2 11 -1.0
2 20 -1.0
2 29 -1.0
2 87 1.0
2 88 -1.0
2 89 -1.0
2 90 -1.0
2 91 -1.0
2 92 -1.0
2 93 -1.0
2 94 -1.0
2 95 -1.0
2 96 -1.0
3 3 -1.0
3 12 -1.0
3 21 -1.0
3 30 -1.0
3 97 1.0
3 98 -1.0
3 99 -1.0
3 100 -1.0
3 101 -1.0
3 102 -1.0
3 103 -1.0
3 104 -1.0
3 105 -1.0
3 106 -1.0
4 4 -1.0
4 13 -1.0
4 22 -1.0
4 31 -1.0
4 107 1.0
4 108 -1.0
4 109 -1.0
4 110 -1.0
4 111 -1.0
4 112 -1.0
4 113 -1.0
4 114 -1.0
4 115 -1.0
4 116 -1.0
5 5 -1.0
5 14 -1.0
5 23 -1.0
5 32 -1.0
5 117 -1.0
5 118 -1.0
5 119 -1.0
5 120 -1.0
5 121 -1.0
5 122 -1.0
5 123 -1.0
5 124 -1.0
5 125 -1.0
6 6 -1.0
6 15 -1.0
6 24 -1.0
6 33 -1.0
6 126 -1.0
6 127 -1.0
6 128 -1.0
6 129 -1.0
6 130 -1.0
6 131 -1.0
6 132 -1.0
6 133 -1.0
6 134 -1.0
7 7 -1.0
7 16 -1.0
7 25 -1.0
7 34 -1.0
7 135 -1.0
7 136 -1.0
7 137 -1.0
7 138 -1.0
7 139 -1.0
7 140 -1.0
7 141 -1.0
7 142 -1.0
7 143 -1.0
8 8 -1.0
8 17 -1.0
8 26 -1.0
8 35 -1.0
8 144 -1.0
8 145 -1.0
8 146 -1.0
8 147 -1.0
8 148 -1.0
8 149 -1.0
8 150 -1.0
8 151 -1.0
8 152 -1.0
9 9 -1.0
9 18 -1.0
9 27 -1.0
9 36 -1.0
9 153 -1.0
9 154 -1.0
9 155 -1.0
9 156 -1.0
9 157 -1.0
9 158 -1.0
9 159 -1.0
9 160 -1.0
9 161 -1.0
10 77 1.0
10 78 -1.0
10 88 -1.0
10 98 -1.0
10 108 -1.0
10 117 -1.0
10 126 -1.0
10 135 -1.0
10 144 -1.0
10 153 -1.0
10 162 -1.0
11 79 -1.0
11 87 1.0
11 89 -1.0
11 99 -1.0
11 109 -1.0
11 118 -1.0
11 127 -1.0
11 136 -1.0
11 145 -1.0
11 154 -1.0
11 163 -1.0
12 80 -1.0
12 90 -1.0
12 97 1.0
12 100 -1.0
12 110 -1.0
12 119 -1.0
12 128 -1.0
12 137 -1.0
12 146 -1.0
12 155 -1.0
12 164 -1.0
13 81 -1.0
13 91 -1.0
13 101 -1.0
13 107 1.0
13 111 -1.0
13 120 -1.0
13 129 -1.0
13 138 -1.0
13 147 -1.0
13 156 -1.0
13 165 -1.0
14 82 -1.0
14 92 -1.0
14 102 -1.0
14 112 -1.0
14 121 -1.0
14 130 -1.0
14 139 -1.0
14 148 -1.0
14 157 -1.0
14 166 -1.0
15 83 -1.0
15 93 -1.0
15 103 -1.0
15 113 -1.0
15 122 -1.0
15 131 -1.0
15 140 -1.0
15 149 -1.0
15 158 -1.0
15 167 -1.0
16 84 -1.0
16 94 -1.0
16 104 -1.0
16 114 -1.0
16 123 -1.0
16 132 -1.0
16 141 -1.0
16 150 -1.0
16 159 -1.0
16 168 -1.0
17 85 -1.0
17 95 -1.0
17 105 -1.0
17 115 -1.0
17 124 -1.0
17 133 -1.0
17 142 -1.0
17 151 -1.0
17 160 -1.0
17 169 -1.0
18 86 -1.0
18 96 -1.0
18 106 -1.0
18 116 -1.0
18 125 -1.0
18 134 -1.0
18 143 -1.0
18 152 -1.0
18 161 -1.0
18 170 -1.0
19 1 -5.0
19 10 -8.0
19 28 -2.0
19 82 -307.0
19 83 -149.0
19 84 -376.0
19 85 -499.0
19 86 -218.0
20 1 -8.0
20 10 -2.0
20 19 -5.0
20 28 -2.0
20 82 -356.0
20 83 -491.0
20 84 -487.0
20 85 -411.0
20 86 -515.0
21 1 -2.0
21 10 -8.0
21 19 -7.0
21 28 -9.0
21 82 -463.0
21 83 -318.0
21 84 -428.0
21 85 -323.0
21 86 -352.0
22 1 -7.0
22 10 -6.0
22 19 -9.0
22 28 -6.0
22 82 -509.0
22 83 -514.0
22 84 -435.0
22 85 -395.0
22 86 -433.0
23 10 -9.0
23 19 -3.0
23 28 -2.0
23 82 -361.0
23 83 -356.0
23 84 -317.0
23 85 -454.0
23 86 -399.0
24 2 -5.0
24 11 -8.0
24 29 -2.0
24 92 -307.0
24 93 -149.0
24 94 -376.0
24 95 -499.0
24 96 -218.0
25 2 -8.0
25 11 -2.0
25 20 -5.0
25 29 -2.0
25 92 -356.0
25 93 -491.0
25 94 -487.0
25 95 -411.0
25 96 -515.0
26 2 -2.0
26 11 -8.0
26 20 -7.0
26 29 -9.0
26 92 -463.0
26 93 -318.0
26 94 -428.0
26 95 -323.0
26 96 -352.0
27 2 -7.0
27 11 -6.0
27 20 -9.0
27 29 -6.0
27 92 -509.0
27 93 -514.0
27 94 -435.0
27 95 -395.0
27 96 -433.0
28 11 -9.0
28 20 -3.0
28 29 -2.0
28 92 -361.0
28 93 -356.0
28 94 -317.0
28 95 -454.0
28 96 -399.0
29 3 -5.0
29 12 -8.0
29 30 -2.0
29 102 -307.0
29 103 -149.0
29 104 -376.0
29 105 -499.0
29 106 -218.0
30 3 -8.0
30 12 -2.0
30 21 -5.0
30 30 -2.0
30 102 -356.0
30 103 -491.0
30 104 -487.0
30 105 -411.0
30 106 -515.0
31 3 -2.0
31 12 -8.0
31 21 -7.0
31 30 -9.0
31 102 -463.0
31 103 -318.0
31 104 -428.0
31 105 -323.0
31 106 -352.0
32 3 -7.0
32 12 -6.0
32 21 -9.0
32 30 -6.0
32 102 -509.0
32 103 -514.0
32 104 -435.0
32 105 -395.0
32 106 -433.0
33 12 -9.0
33 21 -3.0
33 30 -2.0
33 102 -361.0
33 103 -356.0
33 104 -317.0
33 105 -454.0
33 106 -399.0
34 4 -5.0
34 13 -8.0
34 31 -2.0
34 112 -307.0
34 113 -149.0
34 114 -376.0
34 115 -499.0
34 116 -218.0
35 4 -8.0
35 13 -2.0
35 22 -5.0
35 31 -2.0
35 112 -356.0
35 113 -491.0
35 114 -487.0
35 115 -411.0
35 116 -515.0
36 4 -2.0
36 13 -8.0
36 22 -7.0
36 31 -9.0
36 112 -463.0
36 113 -318.0
36 114 -428.0
36 115 -323.0
36 116 -352.0
37 4 -7.0
37 13 -6.0
37 22 -9.0
37 31 -6.0
37 112 -509.0
37 113 -514.0
37 114 -435.0
37 115 -395.0
37 116 -433.0
38 13 -9.0
38 22 -3.0
38 31 -2.0
38 112 -361.0
38 113 -356.0
38 114 -317.0
38 115 -454.0
38 116 -399.0
39 5 -5.0
39 14 -8.0
39 32 -2.0
39 121 -307.0
39 122 -149.0
39 123 -376.0
39 124 -499.0
39 125 -218.0
40 5 -8.0
40 14 -2.0
40 23 -5.0
40 32 -2.0
40 121 -356.0
40 122 -491.0
40 123 -487.0
40 124 -411.0
40 125 -515.0
41 5 -2.0
41 14 -8.0
41 23 -7.0
41 32 -9.0
41 121 -463.0
41 122 -318.0
41 123 -428.0
41 124 -323.0
41 125 -352.0
42 5 -7.0
42 14 -6.0
42 23 -9.0
42 32 -6.0
42 121 -509.0
42 122 -514.0
42 123 -435.0
42 124 -395.0
42 125 -433.0
43 14 -9.0
43 23 -3.0
43 32 -2.0
43 121 -361.0
43 122 -356.0
43 123 -317.0
43 124 -454.0
43 125 -399.0
44 6 -5.0
44 15 -8.0
44 33 -2.0
44 130 -307.0
44 131 -149.0
44 132 -376.0
44 133 -499.0
44 134 -218.0
45 6 -8.0
45 15 -2.0
45 24 -5.0
45 33 -2.0
45 130 -356.0
45 131 -491.0
45 132 -487.0
45 133 -411.0
45 134 -515.0
46 6 -2.0
46 15 -8.0
46 24 -7.0
46 33 -9.0
46 130 -463.0
46 131 -318.0
46 132 -428.0
46 133 -323.0
46 134 -352.0
47 6 -7.0
47 15 -6.0
47 24 -9.0
47 33 -6.0
47 130 -509.0
47 131 -514.0
47 132 -435.0
47 133 -395.0
47 134 -433.0
48 15 -9.0
48 24 -3.0
48 33 -2.0
48 130 -361.0
48 131 -356.0
48 132 -317.0
48 133 -454.0
48 134 -399.0
49 7 -5.0
49 16 -8.0
49 34 -2.0
49 139 -307.0
49 140 -149.0
49 141 -376.0
49 142 -499.0
49 143 -218.0
50 7 -8.0
50 16 -2.0
50 25 -5.0
50 34 -2.0
50 139 -356.0
50 140 -491.0
50 141 -487.0
50 142 -411.0
50 143 -515.0
51 7 -2.0
51 16 -8.0
51 25 -7.0
51 34 -9.0
51 139 -463.0
51 140 -318.0
51 141 -428.0
51 142 -323.0
51 143 -352.0
52 7 -7.0
52 16 -6.0
52 25 -9.0
52 34 -6.0
52 139 -509.0
52 140 -514.0
52 141 -435.0
52 142 -395.0
52 143 -433.0
53 16 -9.0
53 25 -3.0
53 34 -2.0
53 139 -361.0
53 140 -356.0
53 141 -317.0
53 142 -454.0
53 143 -399.0
54 8 -5.0
54 17 -8.0
54 35 -2.0
54 148 -307.0
54 149 -149.0
54 150 -376.0
54 151 -499.0
54 152 -218.0
55 8 -8.0
55 17 -2.0
55 26 -5.0
55 35 -2.0
55 148 -356.0
55 149 -491.0
55 150 -487.0
55 151 -411.0
55 152 -515.0
56 8 -2.0
56 17 -8.0
56 26 -7.0
56 35 -9.0
56 148 -463.0
56 149 -318.0
56 150 -428.0
56 151 -323.0
56 152 -352.0
57 8 -7.0
57 17 -6.0
57 26 -9.0
57 35 -6.0
57 148 -509.0
57 149 -514.0
57 150 -435.0
57 151 -395.0
57 152 -433.0
58 17 -9.0
58 26 -3.0
58 35 -2.0
58 148 -361.0
58 149 -356.0
58 150 -317.0
58 151 -454.0
58 152 -399.0
59 9 -5.0
59 18 -8.0
59 36 -2.0
59 157 -307.0
59 158 -149.0
59 159 -376.0
59 160 -499.0
59 161 -218.0
60 9 -8.0
60 18 -2.0
60 27 -5.0
60 36 -2.0
60 157 -356.0
60 158 -491.0
60 159 -487.0
60 160 -411.0
60 161 -515.0
61 9 -2.0
61 18 -8.0
61 27 -7.0
61 36 -9.0
61 157 -463.0
61 158 -318.0
61 159 -428.0
61 160 -323.0
61 161 -352.0
62 9 -7.0
62 18 -6.0
62 27 -9.0
62 36 -6.0
62 157 -509.0
62 158 -514.0
62 159 -435.0
62 160 -395.0
62 161 -433.0
63 18 -9.0
63 27 -3.0
63 36 -2.0
63 157 -361.0
63 158 -356.0
63 159 -317.0
63 160 -454.0
63 161 -399.0
1.79769313486232E+308 # value for infinity
0.0 # default left-hand-side value
55 # number of non-default left-hand-sides
5 -43.0
6 -127.0
7 -93.0
8 -100.0
9 -20.0
14 -63.0
15 -87.0
16 -50.0
17 -90.0
18 -40.0
39 -12857.0
40 -13244.0
41 -11997.0
42 -20253.0
43 -4472.0
44 -7239.0
45 -61341.0
46 -21971.0
47 -32385.0
48 -22733.0
49 -31341.0
50 -29760.0
51 -6882.0
52 -2790.0
53 -29388.0
54 -48800.0
55 -36000.0
56 -4700.0
57 -36700.0
58 -30100.0
59 -2240.0
60 -9660.0
61 -3400.0
62 -8440.0
63 -5800.0
64 -851.0
65 -2507.0
66 -644.0
67 -851.0
68 -2898.0
69 -1316.0
70 -47.0
71 -1692.0
72 -11374.0
73 -705.0
74 -19803.0
75 -1845.0
76 -17712.0
77 -50676.0
78 -53751.0
79 -1666.0
80 -15912.0
81 -2074.0
82 -10574.0
83 -2890.0
1.79769313486232E+308 # default right-hand-side value
58 # number of non-default right-hand-sides
1 0.0
2 0.0
3 0.0
4 0.0
5 -43.0
6 -127.0
7 -93.0
8 -100.0
9 -20.0
10 0.0
11 0.0
12 0.0
13 0.0
14 -63.0
15 -87.0
16 -50.0
17 -90.0
18 -40.0
19 0.0
20 0.0
21 0.0
22 0.0
23 0.0
24 0.0
25 0.0
26 0.0
27 0.0
28 0.0
29 0.0
30 0.0
31 0.0
32 0.0
33 0.0
34 0.0
35 0.0
36 0.0
37 0.0
38 0.0
64 -851.0
65 -2507.0
66 -644.0
67 -851.0
68 -2898.0
69 -1316.0
70 -47.0
71 -1692.0
72 -11374.0
73 -705.0
74 -19803.0
75 -1845.0
76 -17712.0
77 -50676.0
78 -53751.0
79 -1666.0
80 -15912.0
81 -2074.0
82 -10574.0
83 -2890.0
0.0 # default variable lower bound value
0 # number of non-default variable lower bounds
100000.0 # default variable upper bound value
44 # number of non-default variable upper bounds
37 343.0
38 370.0
39 458.0
40 272.0
41 206.0
42 271.0
43 499.0
44 37.0
45 265.0
46 211.0
47 284.0
48 450.0
49 168.0
50 25.0
51 43.0
52 427.0
53 52.0
54 26.0
55 171.0
56 306.0
57 380.0
58 479.0
59 486.0
60 309.0
61 332.0
62 299.0
63 500.0
64 73.0
65 507.0
66 226.0
67 445.0
68 465.0
69 312.0
70 437.0
71 480.0
72 476.0
73 520.0
74 87.0
75 482.0
76 391.0
77 23.0
87 47.0
97 123.0
107 34.0
0.0 # default variable primal value in starting point
0 # number of non-default variable primal values in starting point
0.0 # default constraint dual value in starting point
0 # number of non-default constraint dual values in starting point
0.0 # default variable bound dual value in starting point
0 # number of non-default variable bound dual values in starting point
0 # number of non-default variable names
0 # number of non-default constraint names
